&BANDS
prefix='WSe2-1T'
outdir='./'
filband='WSe2-1T-b'
/
