&DOS
    prefix='WSe2-1T',
    outdir='./out/',
    fildos='WSe2-1T.dos',
    Emin=-10.0,
    Emax=10.0,
    DeltaE=0.01,
    degauss=0.02
/
