&CONTROL
  calculation = 'nscf'
  title = 'WSe2-1T-NSCF'
  prefix = 'WSe2-1T'
  outdir = './out/'
  pseudo_dir = './'
  verbosity = 'high'
/
&SYSTEM
  ibrav = 0
  nat = 6
  ntyp = 2
  ecutwfc = 50.0    
  ecutrho = 400.0   
  nbnd = 40         
/
&ELECTRONS
  conv_thr = 1.0D-8  
  mixing_beta = 0.4  
/
ATOMIC_SPECIES
Se     78.96 Se.upf
W      183.84 W.upf
ATOMIC_POSITIONS crystal
W             0.6666666700        0.3333333300        0.1361699635
W             0.3333333300        0.6666666700        0.8638300365
Se            0.3333333300        0.6666666700        0.2050104446
Se            0.6666666700        0.3333333300        0.9327647299
Se            0.3333333300        0.6666666700        0.0672352701
Se            0.6666666700        0.3333333300        0.7949895554
K_POINTS automatic
18 18 6 0 0 0
CELL_PARAMETERS angstrom
      3.3178532700       0.0000000000       0.0000000000
     -1.6589266350       2.8733452178       0.0000000000
      0.0000000000       0.0000000000      24.0685192700


