! TPSS def2-SVP  opt

* int 0 1 
O   0  0  0  0.000  0.000  0.000
C   1  0  0  1.2    0.000  0.000
C   2  1  0  1.4    120.0  0.000
C   3  2  1  1.4    120.0  180.0
H   2  3  4  1.1    120.0  0.000
H   3  2  5  1.1    120.0  180.0
H   4  3  6  1.1    120.0  180.0
H   4  3  6  1.1    120.0  0.000
*
